% demand
num_movements = 39;
loading_factor = [2000, 1700, 1750, 1400, 1500, 1750, 1950, 1800, 1100, 1650, 1450, 1000, 1050, 1950, 1350, 950, 1650, 1700, 1050, 950, 1500, 900, 1550, 1200, 1000, 1400, 1500, 1850, 1400, 1400, 1450, 1600, 1150, 1250, 1100, 1150, 2000, 950, 1900];
pickup_time = [0, 0, 0, 0, 1, 1, 1, 1, 2, 2, 2, 2, 3, 3, 3, 3, 4, 4, 5, 5, 5, 5, 6, 6, 6, 6, 7, 7, 8, 8, 8, 8, 8, 9, 9, 11, 11, 11, 12];
delivery_time = [1, 1, 1, 1, 2, 2, 2, 3, 3, 6, 3, 3, 5, 4, 4, 7, 5, 5, 6, 6, 6, 7, 7, 7, 8, 7, 8, 8, 9, 9, 9, 9, 9, 10, 10, 13, 13, 13, 13];

% transporter definition
total_capacity = 7000;
num_decks = 3;
capacity = [3000, 1000, 3000];

% ways out of decks
num_ways_out = 1;
paths_out = array3d(decks, ways_out, decks, [
% ways out of deck d1
2, 3, 0, 

% ways out of deck d2
3, 0, 0, 

% ways out of deck d3
0, 0, 0,	

]);

